4 10 18 15 17 8 14 16 6 11 0 12 5 9 13 2 1 7 3 19  
4 15 18 10 17 8 14 16 6 11 0 1 5 9 13 2 19 12 7 3  
4 10 18 15 17 8 11 14 16 6 0 1 5 9 13 12 2 7 3 19  
4 10 18 14 15 6 11 7 8 17 1 0 12 5 9 19 2 13 16 3  
4 10 18 15 17 8 14 16 6 11 0 1 5 9 13 12 7 2 3 19  
4 15 18 10 17 8 14 16 6 11 0 1 5 9 13 19 12 7 2 3  
4 10 18 15 17 8 14 16 6 11 0 1 5 9 19 7 2 13 12 3  
4 15 18 10 14 6 11 17 8 12 5 9 19 2 0 1 7 13 16 3  
4 15 18 10 14 6 11 17 12 7 5 1 0 9 13 2 19 16 3 8  
4 10 18 15 17 12 11 8 5 9 1 0 19 6 7 13 2 16 3 14  
4 10 18 15 17 8 14 16 6 11 0 1 5 9 19 7 3 13 12 2  
4 10 18 15 17 8 14 16 6 11 0 1 5 9 19 7 2 13 12 3  
